p cnf 304 390
65 0
-65 1 66 0
-66 5 67 0
-67 9 68 0
-68 13 69 0
-69 0
70 0
-70 17 71 0
-71 21 72 0
-72 25 73 0
-73 29 74 0
-74 0
75 0
-75 33 76 0
-76 37 77 0
-77 41 78 0
-78 45 79 0
-79 0
80 0
-80 49 81 0
-81 53 82 0
-82 57 83 0
-83 61 84 0
-84 0
85 0
-85 2 86 0
-86 6 87 0
-87 10 88 0
-88 14 89 0
-89 0
90 0
-90 18 91 0
-91 22 92 0
-92 26 93 0
-93 30 94 0
-94 0
95 0
-95 34 96 0
-96 38 97 0
-97 42 98 0
-98 46 99 0
-99 0
100 0
-100 50 101 0
-101 54 102 0
-102 58 103 0
-103 62 104 0
-104 0
105 0
-105 3 106 0
-106 7 107 0
-107 11 108 0
-108 15 109 0
-109 0
110 0
-110 19 111 0
-111 23 112 0
-112 27 113 0
-113 31 114 0
-114 0
115 0
-115 35 116 0
-116 39 117 0
-117 43 118 0
-118 47 119 0
-119 0
120 0
-120 51 121 0
-121 55 122 0
-122 59 123 0
-123 63 124 0
-124 0
125 0
-125 4 126 0
-126 8 127 0
-127 12 128 0
-128 16 129 0
-129 0
130 0
-130 20 131 0
-131 24 132 0
-132 28 133 0
-133 32 134 0
-134 0
135 0
-135 36 136 0
-136 40 137 0
-137 44 138 0
-138 48 139 0
-139 0
140 0
-140 52 141 0
-141 56 142 0
-142 60 143 0
-143 64 144 0
-144 0
145 0
-145 1 146 0
-146 17 147 0
-147 33 148 0
-148 49 149 0
-149 0
150 0
-150 5 151 0
-151 21 152 0
-152 37 153 0
-153 53 154 0
-154 0
155 0
-155 9 156 0
-156 25 157 0
-157 41 158 0
-158 57 159 0
-159 0
160 0
-160 13 161 0
-161 29 162 0
-162 45 163 0
-163 61 164 0
-164 0
165 0
-165 2 166 0
-166 18 167 0
-167 34 168 0
-168 50 169 0
-169 0
170 0
-170 6 171 0
-171 22 172 0
-172 38 173 0
-173 54 174 0
-174 0
175 0
-175 10 176 0
-176 26 177 0
-177 42 178 0
-178 58 179 0
-179 0
180 0
-180 14 181 0
-181 30 182 0
-182 46 183 0
-183 62 184 0
-184 0
185 0
-185 3 186 0
-186 19 187 0
-187 35 188 0
-188 51 189 0
-189 0
190 0
-190 7 191 0
-191 23 192 0
-192 39 193 0
-193 55 194 0
-194 0
195 0
-195 11 196 0
-196 27 197 0
-197 43 198 0
-198 59 199 0
-199 0
200 0
-200 15 201 0
-201 31 202 0
-202 47 203 0
-203 63 204 0
-204 0
205 0
-205 4 206 0
-206 20 207 0
-207 36 208 0
-208 52 209 0
-209 0
210 0
-210 8 211 0
-211 24 212 0
-212 40 213 0
-213 56 214 0
-214 0
215 0
-215 12 216 0
-216 28 217 0
-217 44 218 0
-218 60 219 0
-219 0
220 0
-220 16 221 0
-221 32 222 0
-222 48 223 0
-223 64 224 0
-224 0
225 0
-225 1 226 0
-226 5 227 0
-227 17 228 0
-228 21 229 0
-229 0
230 0
-230 9 231 0
-231 13 232 0
-232 25 233 0
-233 29 234 0
-234 0
235 0
-235 33 236 0
-236 37 237 0
-237 49 238 0
-238 53 239 0
-239 0
240 0
-240 41 241 0
-241 45 242 0
-242 57 243 0
-243 61 244 0
-244 0
245 0
-245 2 246 0
-246 6 247 0
-247 18 248 0
-248 22 249 0
-249 0
250 0
-250 10 251 0
-251 14 252 0
-252 26 253 0
-253 30 254 0
-254 0
255 0
-255 34 256 0
-256 38 257 0
-257 50 258 0
-258 54 259 0
-259 0
260 0
-260 42 261 0
-261 46 262 0
-262 58 263 0
-263 62 264 0
-264 0
265 0
-265 3 266 0
-266 7 267 0
-267 19 268 0
-268 23 269 0
-269 0
270 0
-270 11 271 0
-271 15 272 0
-272 27 273 0
-273 31 274 0
-274 0
275 0
-275 35 276 0
-276 39 277 0
-277 51 278 0
-278 55 279 0
-279 0
280 0
-280 43 281 0
-281 47 282 0
-282 59 283 0
-283 63 284 0
-284 0
285 0
-285 4 286 0
-286 8 287 0
-287 20 288 0
-288 24 289 0
-289 0
290 0
-290 12 291 0
-291 16 292 0
-292 28 293 0
-293 32 294 0
-294 0
295 0
-295 36 296 0
-296 40 297 0
-297 52 298 0
-298 56 299 0
-299 0
300 0
-300 44 301 0
-301 48 302 0
-302 60 303 0
-303 64 304 0
-304 0
-1 -2 0
-1 -3 0
-1 -4 0
-2 -3 0
-2 -4 0
-3 -4 0
-5 -6 0
-5 -7 0
-5 -8 0
-6 -7 0
-6 -8 0
-7 -8 0
-9 -10 0
-9 -11 0
-9 -12 0
-10 -11 0
-10 -12 0
-11 -12 0
-13 -14 0
-13 -15 0
-13 -16 0
-14 -15 0
-14 -16 0
-15 -16 0
-17 -18 0
-17 -19 0
-17 -20 0
-18 -19 0
-18 -20 0
-19 -20 0
-21 -22 0
-21 -23 0
-21 -24 0
-22 -23 0
-22 -24 0
-23 -24 0
-25 -26 0
-25 -27 0
-25 -28 0
-26 -27 0
-26 -28 0
-27 -28 0
-29 -30 0
-29 -31 0
-29 -32 0
-30 -31 0
-30 -32 0
-31 -32 0
-33 -34 0
-33 -35 0
-33 -36 0
-34 -35 0
-34 -36 0
-35 -36 0
-37 -38 0
-37 -39 0
-37 -40 0
-38 -39 0
-38 -40 0
-39 -40 0
-41 -42 0
-41 -43 0
-41 -44 0
-42 -43 0
-42 -44 0
-43 -44 0
-45 -46 0
-45 -47 0
-45 -48 0
-46 -47 0
-46 -48 0
-47 -48 0
-49 -50 0
-49 -51 0
-49 -52 0
-50 -51 0
-50 -52 0
-51 -52 0
-53 -54 0
-53 -55 0
-53 -56 0
-54 -55 0
-54 -56 0
-55 -56 0
-57 -58 0
-57 -59 0
-57 -60 0
-58 -59 0
-58 -60 0
-59 -60 0
-61 -62 0
-61 -63 0
-61 -64 0
-62 -63 0
-62 -64 0
-63 -64 0
25 0
30 0
39 0
44 0
53 0
58 0
